NAME          XXX
ROWS
 N  OBJ
 L  FRC0
 L  FRC1
 L  FRC2
 L  FRC3
 L  FRC4
 L  FRC5
 L  FRC6
 L  FRC7
 L  FRC8
 L  FRC9
 L  SCCT15
 L  SCCT14
 L  SCCT13
 L  SCCT12
 L  SCCT11
 L  SCCT10
 L  SCCT9
 L  SCCT8
 L  SCCT7
 L  SCCT6
 L  SCCT20
 L  SCCT5
 L  SCCT4
 L  SCCT3
 L  SCCT2
 L  SCCT1
 L  SCCT19
 L  SCCT18
 L  SCCT17
 L  SCCT16
 L  SDCD9
 L  SDCD29
 L  SDCD8
 L  SDCD28
 L  SDCD7
 L  SDCD27
 L  SDCD6
 L  SDCD26
 L  SDCD25
 L  SDCD5
 L  SDCD24
 L  SDCD4
 L  SDCD23
 L  SDCD3
 L  SDCD22
 L  SDCD2
 L  SDCD21
 L  SDCD1
 L  SDCD20
 L  SDCD50
 L  SDCD19
 L  SDCD18
 L  SDCD49
 L  SDCD17
 L  SDCD48
 L  SDCD16
 L  SDCD47
 L  SDCD15
 L  SDCD46
 L  SDCD14
 L  SDCD45
 L  SDCD13
 L  SDCD44
 L  SDCD12
 L  SDCD43
 L  SDCD11
 L  SDCD42
 L  SDCD10
 L  SDCD41
 L  SDCD40
 L  SDCD39
 L  SDCD38
 L  SDCD37
 L  SDCD36
 L  SDCD35
 L  SDCD34
 L  SDCD33
 L  SDCD32
 L  SDCD31
 L  SDCD30
COLUMNS
    FCVT15    OBJ       84.023
    FCVT15    SCCT15    -1
    FCVT15    FRC0      1.164
    FCVT15    FRC1      1.014
    FCVT15    FRC2      1.107
    FCVT15    FRC3      1.575
    FCVT15    FRC4      0.866
    FCVT15    FRC5      1.572
    FCVT15    FRC6      1.555
    FCVT15    FRC7      1.56
    FCVT15    FRC8      1.553
    FCVT15    FRC9      1.154
    FCVT14    OBJ       44.644
    FCVT14    SCCT14    -1
    FCVT14    FRC0      0.718
    FCVT14    FRC1      0.822
    FCVT14    FRC2      0.63
    FCVT14    FRC3      0.952
    FCVT14    FRC4      0.898
    FCVT14    FRC5      0.65
    FCVT14    FRC6      0.759
    FCVT14    FRC7      0.642
    FCVT14    FRC8      0.915
    FCVT14    FRC9      0.969
    FCVT13    OBJ       39.903
    FCVT13    SCCT13    -1
    FCVT13    FRC0      0.959
    FCVT13    FRC1      1.084
    FCVT13    FRC2      0.743
    FCVT13    FRC3      0.936
    FCVT13    FRC4      0.971
    FCVT13    FRC5      0.99
    FCVT13    FRC6      0.779
    FCVT13    FRC7      1.016
    FCVT13    FRC8      0.767
    FCVT13    FRC9      0.668
    FCVT12    OBJ       59.556
    FCVT12    SCCT12    -1
    FCVT12    FRC0      1.005
    FCVT12    FRC1      1.276
    FCVT12    FRC2      1.6
    FCVT12    FRC3      1.056
    FCVT12    FRC4      1.167
    FCVT12    FRC5      1.035
    FCVT12    FRC6      1.195
    FCVT12    FRC7      1.047
    FCVT12    FRC8      1.537
    FCVT12    FRC9      0.901
    FCVT11    OBJ       58.703
    FCVT11    SCCT11    -1
    FCVT11    FRC0      1.013
    FCVT11    FRC1      0.716
    FCVT11    FRC2      1.012
    FCVT11    FRC3      1.196
    FCVT11    FRC4      0.764
    FCVT11    FRC5      0.857
    FCVT11    FRC6      0.907
    FCVT11    FRC7      0.834
    FCVT11    FRC8      0.895
    FCVT11    FRC9      0.929
    FCVT10    OBJ       86.149
    FCVT10    SCCT10    -1
    FCVT10    FRC0      1.191
    FCVT10    FRC1      1.377
    FCVT10    FRC2      1.11
    FCVT10    FRC3      1.099
    FCVT10    FRC4      1.058
    FCVT10    FRC5      0.978
    FCVT10    FRC6      1.249
    FCVT10    FRC7      1.412
    FCVT10    FRC8      0.912
    FCVT10    FRC9      0.888
    FCVT9     OBJ       91.346
    FCVT9     SCCT9     -1
    FCVT9     FRC0      1.528
    FCVT9     FRC1      1.557
    FCVT9     FRC2      1.736
    FCVT9     FRC3      1.656
    FCVT9     FRC4      1.217
    FCVT9     FRC5      1.262
    FCVT9     FRC6      1.726
    FCVT9     FRC7      1.235
    FCVT9     FRC8      1.908
    FCVT9     FRC9      1.748
    FCVT8     OBJ       68.214
    FCVT8     SCCT8     -1
    FCVT8     FRC0      0.755
    FCVT8     FRC1      1.024
    FCVT8     FRC2      0.667
    FCVT8     FRC3      1.02
    FCVT8     FRC4      0.78
    FCVT8     FRC5      1.162
    FCVT8     FRC6      1.064
    FCVT8     FRC7      1.073
    FCVT8     FRC8      0.951
    FCVT8     FRC9      1.222
    FCVT7     OBJ       37.111
    FCVT7     SCCT7     -1
    FCVT7     FRC0      0.88
    FCVT7     FRC1      0.933
    FCVT7     FRC2      0.605
    FCVT7     FRC3      0.836
    FCVT7     FRC4      0.773
    FCVT7     FRC5      0.593
    FCVT7     FRC6      0.836
    FCVT7     FRC7      0.56
    FCVT7     FRC8      0.824
    FCVT7     FRC9      0.581
    FCVT6     OBJ       25.861
    FCVT6     SCCT6     -1
    FCVT6     FRC0      0.642
    FCVT6     FRC1      0.503
    FCVT6     FRC2      0.615
    FCVT6     FRC3      0.7
    FCVT6     FRC4      0.528
    FCVT6     FRC5      0.613
    FCVT6     FRC6      0.507
    FCVT6     FRC7      0.71
    FCVT6     FRC8      0.664
    FCVT6     FRC9      0.552
    FCVT20    OBJ       81.572
    FCVT20    SCCT20    -1
    FCVT20    FRC0      1.267
    FCVT20    FRC1      1.672
    FCVT20    FRC2      1.81
    FCVT20    FRC3      1.067
    FCVT20    FRC4      1.432
    FCVT20    FRC5      1.788
    FCVT20    FRC6      1.823
    FCVT20    FRC7      1.083
    FCVT20    FRC8      1.702
    FCVT20    FRC9      1.405
    FCVT5     OBJ       85.456
    FCVT5     SCCT5     -1
    FCVT5     FRC0      0.808
    FCVT5     FRC1      1.153
    FCVT5     FRC2      1.14
    FCVT5     FRC3      1.203
    FCVT5     FRC4      1.364
    FCVT5     FRC5      0.929
    FCVT5     FRC6      0.931
    FCVT5     FRC7      1.232
    FCVT5     FRC8      0.989
    FCVT5     FRC9      1.167
    FCVT4     OBJ       45.459
    FCVT4     SCCT4     -1
    FCVT4     FRC0      0.609
    FCVT4     FRC1      0.827
    FCVT4     FRC2      0.785
    FCVT4     FRC3      0.834
    FCVT4     FRC4      0.687
    FCVT4     FRC5      0.942
    FCVT4     FRC6      0.962
    FCVT4     FRC7      0.976
    FCVT4     FRC8      1.071
    FCVT4     FRC9      0.898
    FCVT3     OBJ       71.898
    FCVT3     SCCT3     -1
    FCVT3     FRC0      0.845
    FCVT3     FRC1      1.285
    FCVT3     FRC2      0.975
    FCVT3     FRC3      1.355
    FCVT3     FRC4      1.189
    FCVT3     FRC5      1.387
    FCVT3     FRC6      0.902
    FCVT3     FRC7      1.272
    FCVT3     FRC8      0.876
    FCVT3     FRC9      0.8
    FCVT2     OBJ       39.386
    FCVT2     SCCT2     -1
    FCVT2     FRC0      0.83
    FCVT2     FRC1      0.798
    FCVT2     FRC2      0.542
    FCVT2     FRC3      0.819
    FCVT2     FRC4      0.508
    FCVT2     FRC5      0.63
    FCVT2     FRC6      0.779
    FCVT2     FRC7      0.677
    FCVT2     FRC8      0.666
    FCVT2     FRC9      0.812
    FCVT1     OBJ       75.226
    FCVT1     SCCT1     -1
    FCVT1     FRC0      1.58
    FCVT1     FRC1      1.219
    FCVT1     FRC2      1.374
    FCVT1     FRC3      1.347
    FCVT1     FRC4      1.062
    FCVT1     FRC5      0.981
    FCVT1     FRC6      1.319
    FCVT1     FRC7      1.521
    FCVT1     FRC8      1.543
    FCVT1     FRC9      1.591
    FCVT19    OBJ       53.838
    FCVT19    SCCT19    -1
    FCVT19    FRC0      1.202
    FCVT19    FRC1      1.316
    FCVT19    FRC2      1.334
    FCVT19    FRC3      0.867
    FCVT19    FRC4      0.994
    FCVT19    FRC5      0.8
    FCVT19    FRC6      0.864
    FCVT19    FRC7      1.124
    FCVT19    FRC8      1.073
    FCVT19    FRC9      1.063
    FCVT18    OBJ       34.024
    FCVT18    SCCT18    -1
    FCVT18    FRC0      0.835
    FCVT18    FRC1      0.757
    FCVT18    FRC2      0.778
    FCVT18    FRC3      0.564
    FCVT18    FRC4      0.537
    FCVT18    FRC5      0.645
    FCVT18    FRC6      0.799
    FCVT18    FRC7      0.708
    FCVT18    FRC8      0.722
    FCVT18    FRC9      0.588
    FCVT17    OBJ       27.234
    FCVT17    SCCT17    -1
    FCVT17    FRC0      0.775
    FCVT17    FRC1      0.528
    FCVT17    FRC2      0.514
    FCVT17    FRC3      0.542
    FCVT17    FRC4      0.567
    FCVT17    FRC5      0.746
    FCVT17    FRC6      0.727
    FCVT17    FRC7      0.573
    FCVT17    FRC8      0.528
    FCVT17    FRC9      0.442
    FCVT16    OBJ       96.921
    FCVT16    SCCT16    -1
    FCVT16    FRC0      1.092
    FCVT16    FRC1      1.562
    FCVT16    FRC2      1.183
    FCVT16    FRC3      1.052
    FCVT16    FRC4      1.649
    FCVT16    FRC5      1.271
    FCVT16    FRC6      1.128
    FCVT16    FRC7      1.634
    FCVT16    FRC8      1.333
    FCVT16    FRC9      1.227
    SVT15D48  OBJ       315.745
    SVT15D48  SCCT15    1
    SVT15D48  SDCD48    1
    SVT15D49  OBJ       568.644
    SVT15D49  SCCT15    1
    SVT15D49  SDCD49    1
    SVT15D43  OBJ       581.754
    SVT15D43  SCCT15    1
    SVT15D43  SDCD43    1
    SVT15D44  OBJ       211.954
    SVT15D44  SCCT15    1
    SVT15D44  SDCD44    1
    SVT15D11  OBJ       385.012
    SVT15D11  SCCT15    1
    SVT15D11  SDCD11    1
    SVT15D50  OBJ       473.56
    SVT15D50  SCCT15    1
    SVT15D50  SDCD50    1
    SVT15D15  OBJ       297.668
    SVT15D15  SCCT15    1
    SVT15D15  SDCD15    1
    SVT15D42  OBJ       392.681
    SVT15D42  SCCT15    1
    SVT15D42  SDCD42    1
    SVT15D45  OBJ       33.123
    SVT15D45  SCCT15    1
    SVT15D45  SDCD45    1
    SVT15D23  OBJ       617.331
    SVT15D23  SCCT15    1
    SVT15D23  SDCD23    1
    SVT14D45  OBJ       -31.334
    SVT14D45  SCCT14    1
    SVT14D45  SDCD45    1
    SVT14D22  OBJ       922.759
    SVT14D22  SCCT14    1
    SVT14D22  SDCD22    1
    SVT14D11  OBJ       407.809
    SVT14D11  SCCT14    1
    SVT14D11  SDCD11    1
    SVT14D43  OBJ       549.186
    SVT14D43  SCCT14    1
    SVT14D43  SDCD43    1
    SVT14D48  OBJ       529.941
    SVT14D48  SCCT14    1
    SVT14D48  SDCD48    1
    SVT14D15  OBJ       284.52
    SVT14D15  SCCT14    1
    SVT14D15  SDCD15    1
    SVT14D44  OBJ       549.447
    SVT14D44  SCCT14    1
    SVT14D44  SDCD44    1
    SVT14D49  OBJ       688.511
    SVT14D49  SCCT14    1
    SVT14D49  SDCD49    1
    SVT14D30  OBJ       985.769
    SVT14D30  SCCT14    1
    SVT14D30  SDCD30    1
    SVT14D42  OBJ       322.058
    SVT14D42  SCCT14    1
    SVT14D42  SDCD42    1
    SVT13D38  OBJ       896.902
    SVT13D38  SCCT13    1
    SVT13D38  SDCD38    1
    SVT13D4   OBJ       100.378
    SVT13D4   SCCT13    1
    SVT13D4   SDCD4     1
    SVT13D1   OBJ       357.977
    SVT13D1   SCCT13    1
    SVT13D1   SDCD1     1
    SVT13D28  OBJ       925.956
    SVT13D28  SCCT13    1
    SVT13D28  SDCD28    1
    SVT13D36  OBJ       181.852
    SVT13D36  SCCT13    1
    SVT13D36  SDCD36    1
    SVT13D13  OBJ       267.61
    SVT13D13  SCCT13    1
    SVT13D13  SDCD13    1
    SVT13D14  OBJ       -117.583
    SVT13D14  SCCT13    1
    SVT13D14  SDCD14    1
    SVT13D3   OBJ       300.452
    SVT13D3   SCCT13    1
    SVT13D3   SDCD3     1
    SVT13D23  OBJ       977.572
    SVT13D23  SCCT13    1
    SVT13D23  SDCD23    1
    SVT13D20  OBJ       -78.441
    SVT13D20  SCCT13    1
    SVT13D20  SDCD20    1
    SVT12D10  OBJ       427.919
    SVT12D10  SCCT12    1
    SVT12D10  SDCD10    1
    SVT12D38  OBJ       390.306
    SVT12D38  SCCT12    1
    SVT12D38  SDCD38    1
    SVT12D12  OBJ       521.017
    SVT12D12  SCCT12    1
    SVT12D12  SDCD12    1
    SVT12D13  OBJ       164.803
    SVT12D13  SCCT12    1
    SVT12D13  SDCD13    1
    SVT12D4   OBJ       399.95
    SVT12D4   SCCT12    1
    SVT12D4   SDCD4     1
    SVT12D3   OBJ       567.632
    SVT12D3   SCCT12    1
    SVT12D3   SDCD3     1
    SVT12D21  OBJ       519.052
    SVT12D21  SCCT12    1
    SVT12D21  SDCD21    1
    SVT12D36  OBJ       62.909
    SVT12D36  SCCT12    1
    SVT12D36  SDCD36    1
    SVT12D1   OBJ       200.563
    SVT12D1   SCCT12    1
    SVT12D1   SDCD1     1
    SVT12D23  OBJ       539.979
    SVT12D23  SCCT12    1
    SVT12D23  SDCD23    1
    SVT11D13  OBJ       381.248
    SVT11D13  SCCT11    1
    SVT11D13  SDCD13    1
    SVT11D4   OBJ       54.005
    SVT11D4   SCCT11    1
    SVT11D4   SDCD4     1
    SVT11D1   OBJ       395.509
    SVT11D1   SCCT11    1
    SVT11D1   SDCD1     1
    SVT11D28  OBJ       509.881
    SVT11D28  SCCT11    1
    SVT11D28  SDCD28    1
    SVT11D21  OBJ       587.395
    SVT11D21  SCCT11    1
    SVT11D21  SDCD21    1
    SVT11D14  OBJ       378.054
    SVT11D14  SCCT11    1
    SVT11D14  SDCD14    1
    SVT11D20  OBJ       495.978
    SVT11D20  SCCT11    1
    SVT11D20  SDCD20    1
    SVT11D3   OBJ       243.957
    SVT11D3   SCCT11    1
    SVT11D3   SDCD3     1
    SVT11D36  OBJ       -132.85
    SVT11D36  SCCT11    1
    SVT11D36  SDCD36    1
    SVT11D38  OBJ       414.239
    SVT11D38  SCCT11    1
    SVT11D38  SDCD38    1
    SVT10D32  OBJ       842.989
    SVT10D32  SCCT10    1
    SVT10D32  SDCD32    1
    SVT10D10  OBJ       661.986
    SVT10D10  SCCT10    1
    SVT10D10  SDCD10    1
    SVT10D8   OBJ       341.981
    SVT10D8   SCCT10    1
    SVT10D8   SDCD8     1
    SVT10D18  OBJ       111.9
    SVT10D18  SCCT10    1
    SVT10D18  SDCD18    1
    SVT10D19  OBJ       591.468
    SVT10D19  SCCT10    1
    SVT10D19  SDCD19    1
    SVT10D12  OBJ       529.709
    SVT10D12  SCCT10    1
    SVT10D12  SDCD12    1
    SVT10D47  OBJ       162.614
    SVT10D47  SCCT10    1
    SVT10D47  SDCD47    1
    SVT10D26  OBJ       514.978
    SVT10D26  SCCT10    1
    SVT10D26  SDCD26    1
    SVT10D25  OBJ       -108.608
    SVT10D25  SCCT10    1
    SVT10D25  SDCD25    1
    SVT10D5   OBJ       546.151
    SVT10D5   SCCT10    1
    SVT10D5   SDCD5     1
    SVT9D19   OBJ       281.641
    SVT9D19   SCCT9     1
    SVT9D19   SDCD19    1
    SVT9D24   OBJ       -52.382
    SVT9D24   SCCT9     1
    SVT9D24   SDCD24    1
    SVT9D8    OBJ       239.195
    SVT9D8    SCCT9     1
    SVT9D8    SDCD8     1
    SVT9D28   OBJ       280.744
    SVT9D28   SCCT9     1
    SVT9D28   SDCD28    1
    SVT9D38   OBJ       91.265
    SVT9D38   SCCT9     1
    SVT9D38   SDCD38    1
    SVT9D48   OBJ       324.02
    SVT9D48   SCCT9     1
    SVT9D48   SDCD48    1
    SVT9D10   OBJ       311.923
    SVT9D10   SCCT9     1
    SVT9D10   SDCD10    1
    SVT9D26   OBJ       342.552
    SVT9D26   SCCT9     1
    SVT9D26   SDCD26    1
    SVT9D21   OBJ       88.886
    SVT9D21   SCCT9     1
    SVT9D21   SDCD21    1
    SVT9D23   OBJ       145.269
    SVT9D23   SCCT9     1
    SVT9D23   SDCD23    1
    SVT8D40   OBJ       873.749
    SVT8D40   SCCT8     1
    SVT8D40   SDCD40    1
    SVT8D46   OBJ       -118.25
    SVT8D46   SCCT8     1
    SVT8D46   SDCD46    1
    SVT8D8    OBJ       850.192
    SVT8D8    SCCT8     1
    SVT8D8    SDCD8     1
    SVT8D19   OBJ       408.804
    SVT8D19   SCCT8     1
    SVT8D19   SDCD19    1
    SVT8D32   OBJ       351.965
    SVT8D32   SCCT8     1
    SVT8D32   SDCD32    1
    SVT8D34   OBJ       855.203
    SVT8D34   SCCT8     1
    SVT8D34   SDCD34    1
    SVT8D47   OBJ       570.531
    SVT8D47   SCCT8     1
    SVT8D47   SDCD47    1
    SVT8D26   OBJ       422.014
    SVT8D26   SCCT8     1
    SVT8D26   SDCD26    1
    SVT8D30   OBJ       651.448
    SVT8D30   SCCT8     1
    SVT8D30   SDCD30    1
    SVT8D5    OBJ       243.693
    SVT8D5    SCCT8     1
    SVT8D5    SDCD5     1
    SVT7D9    OBJ       1049.773
    SVT7D9    SCCT7     1
    SVT7D9    SDCD9     1
    SVT7D3    OBJ       234.465
    SVT7D3    SCCT7     1
    SVT7D3    SDCD3     1
    SVT7D14   OBJ       101.606
    SVT7D14   SCCT7     1
    SVT7D14   SDCD14    1
    SVT7D28   OBJ       982.958
    SVT7D28   SCCT7     1
    SVT7D28   SDCD28    1
    SVT7D20   OBJ       239.26
    SVT7D20   SCCT7     1
    SVT7D20   SDCD20    1
    SVT7D27   OBJ       847.788
    SVT7D27   SCCT7     1
    SVT7D27   SDCD27    1
    SVT7D36   OBJ       552.395
    SVT7D36   SCCT7     1
    SVT7D36   SDCD36    1
    SVT7D13   OBJ       798.75
    SVT7D13   SCCT7     1
    SVT7D13   SDCD13    1
    SVT7D4    OBJ       163.875
    SVT7D4    SCCT7     1
    SVT7D4    SDCD4     1
    SVT7D1    OBJ       877.448
    SVT7D1    SCCT7     1
    SVT7D1    SDCD1     1
    SVT6D2    OBJ       797.423
    SVT6D2    SCCT6     1
    SVT6D2    SDCD2     1
    SVT6D15   OBJ       735.052
    SVT6D15   SCCT6     1
    SVT6D15   SDCD15    1
    SVT6D49   OBJ       198.239
    SVT6D49   SCCT6     1
    SVT6D49   SDCD49    1
    SVT6D30   OBJ       872.124
    SVT6D30   SCCT6     1
    SVT6D30   SDCD30    1
    SVT6D42   OBJ       626.583
    SVT6D42   SCCT6     1
    SVT6D42   SDCD42    1
    SVT6D22   OBJ       406.236
    SVT6D22   SCCT6     1
    SVT6D22   SDCD22    1
    SVT6D43   OBJ       473.703
    SVT6D43   SCCT6     1
    SVT6D43   SDCD43    1
    SVT6D45   OBJ       865.328
    SVT6D45   SCCT6     1
    SVT6D45   SDCD45    1
    SVT6D39   OBJ       711.192
    SVT6D39   SCCT6     1
    SVT6D39   SDCD39    1
    SVT6D11   OBJ       -123.121
    SVT6D11   SCCT6     1
    SVT6D11   SDCD11    1
    SVT20D48  OBJ       422.142
    SVT20D48  SCCT20    1
    SVT20D48  SDCD48    1
    SVT20D24  OBJ       291.436
    SVT20D24  SCCT20    1
    SVT20D24  SDCD24    1
    SVT20D32  OBJ       205.448
    SVT20D32  SCCT20    1
    SVT20D32  SDCD32    1
    SVT20D49  OBJ       339.39
    SVT20D49  SCCT20    1
    SVT20D49  SDCD49    1
    SVT20D30  OBJ       200.013
    SVT20D30  SCCT20    1
    SVT20D30  SDCD30    1
    SVT20D43  OBJ       262.8
    SVT20D43  SCCT20    1
    SVT20D43  SDCD43    1
    SVT20D42  OBJ       102.733
    SVT20D42  SCCT20    1
    SVT20D42  SDCD42    1
    SVT20D26  OBJ       178.164
    SVT20D26  SCCT20    1
    SVT20D26  SDCD26    1
    SVT20D19  OBJ       -24.787
    SVT20D19  SCCT20    1
    SVT20D19  SDCD19    1
    SVT20D15  OBJ       -14.717
    SVT20D15  SCCT20    1
    SVT20D15  SDCD15    1
    SVT5D9    OBJ       586.238
    SVT5D9    SCCT5     1
    SVT5D9    SDCD9     1
    SVT5D29   OBJ       480.888
    SVT5D29   SCCT5     1
    SVT5D29   SDCD29    1
    SVT5D37   OBJ       199.424
    SVT5D37   SCCT5     1
    SVT5D37   SDCD37    1
    SVT5D33   OBJ       329.916
    SVT5D33   SCCT5     1
    SVT5D33   SDCD33    1
    SVT5D7    OBJ       -56.473
    SVT5D7    SCCT5     1
    SVT5D7    SDCD7     1
    SVT5D31   OBJ       253.865
    SVT5D31   SCCT5     1
    SVT5D31   SDCD31    1
    SVT5D6    OBJ       460.602
    SVT5D6    SCCT5     1
    SVT5D6    SDCD6     1
    SVT5D35   OBJ       28.934
    SVT5D35   SCCT5     1
    SVT5D35   SDCD35    1
    SVT5D16   OBJ       245.656
    SVT5D16   SCCT5     1
    SVT5D16   SDCD16    1
    SVT5D50   OBJ       109.224
    SVT5D50   SCCT5     1
    SVT5D50   SDCD50    1
    SVT4D15   OBJ       433.594
    SVT4D15   SCCT4     1
    SVT4D15   SDCD15    1
    SVT4D23   OBJ       550.41
    SVT4D23   SCCT4     1
    SVT4D23   SDCD23    1
    SVT4D48   OBJ       105.896
    SVT4D48   SCCT4     1
    SVT4D48   SDCD48    1
    SVT4D28   OBJ       640.799
    SVT4D28   SCCT4     1
    SVT4D28   SDCD28    1
    SVT4D45   OBJ       318.622
    SVT4D45   SCCT4     1
    SVT4D45   SDCD45    1
    SVT4D42   OBJ       612.245
    SVT4D42   SCCT4     1
    SVT4D42   SDCD42    1
    SVT4D38   OBJ       777.261
    SVT4D38   SCCT4     1
    SVT4D38   SDCD38    1
    SVT4D50   OBJ       790.581
    SVT4D50   SCCT4     1
    SVT4D50   SDCD50    1
    SVT4D24   OBJ       719.1
    SVT4D24   SCCT4     1
    SVT4D24   SDCD24    1
    SVT4D21   OBJ       537.176
    SVT4D21   SCCT4     1
    SVT4D21   SDCD21    1
    SVT3D30   OBJ       35.879
    SVT3D30   SCCT3     1
    SVT3D30   SDCD30    1
    SVT3D46   OBJ       418.209
    SVT3D46   SCCT3     1
    SVT3D46   SDCD46    1
    SVT3D43   OBJ       440.958
    SVT3D43   SCCT3     1
    SVT3D43   SDCD43    1
    SVT3D40   OBJ       -4.178
    SVT3D40   SCCT3     1
    SVT3D40   SDCD40    1
    SVT3D49   OBJ       209.069
    SVT3D49   SCCT3     1
    SVT3D49   SDCD49    1
    SVT3D15   OBJ       490.924
    SVT3D15   SCCT3     1
    SVT3D15   SDCD15    1
    SVT3D32   OBJ       555.039
    SVT3D32   SCCT3     1
    SVT3D32   SDCD32    1
    SVT3D42   OBJ       501.314
    SVT3D42   SCCT3     1
    SVT3D42   SDCD42    1
    SVT3D34   OBJ       14.483
    SVT3D34   SCCT3     1
    SVT3D34   SDCD34    1
    SVT3D11   OBJ       429.667
    SVT3D11   SCCT3     1
    SVT3D11   SDCD11    1
    SVT2D9    OBJ       643.091
    SVT2D9    SCCT2     1
    SVT2D9    SDCD9     1
    SVT2D3    OBJ       147.785
    SVT2D3    SCCT2     1
    SVT2D3    SDCD3     1
    SVT2D21   OBJ       797.217
    SVT2D21   SCCT2     1
    SVT2D21   SDCD21    1
    SVT2D28   OBJ       427.716
    SVT2D28   SCCT2     1
    SVT2D28   SDCD28    1
    SVT2D38   OBJ       764.823
    SVT2D38   SCCT2     1
    SVT2D38   SDCD38    1
    SVT2D27   OBJ       587.6
    SVT2D27   SCCT2     1
    SVT2D27   SDCD27    1
    SVT2D6    OBJ       786.909
    SVT2D6    SCCT2     1
    SVT2D6    SDCD6     1
    SVT2D23   OBJ       690.228
    SVT2D23   SCCT2     1
    SVT2D23   SDCD23    1
    SVT2D4    OBJ       329.926
    SVT2D4    SCCT2     1
    SVT2D4    SDCD4     1
    SVT2D36   OBJ       528.092
    SVT2D36   SCCT2     1
    SVT2D36   SDCD36    1
    SVT1D48   OBJ       234.985
    SVT1D48   SCCT1     1
    SVT1D48   SDCD48    1
    SVT1D24   OBJ       298.08
    SVT1D24   SCCT1     1
    SVT1D24   SDCD24    1
    SVT1D43   OBJ       257.568
    SVT1D43   SCCT1     1
    SVT1D43   SDCD43    1
    SVT1D15   OBJ       -103.52
    SVT1D15   SCCT1     1
    SVT1D15   SDCD15    1
    SVT1D42   OBJ       33.168
    SVT1D42   SCCT1     1
    SVT1D42   SDCD42    1
    SVT1D11   OBJ       308.5
    SVT1D11   SCCT1     1
    SVT1D11   SDCD11    1
    SVT1D49   OBJ       318.021
    SVT1D49   SCCT1     1
    SVT1D49   SDCD49    1
    SVT1D30   OBJ       361.274
    SVT1D30   SCCT1     1
    SVT1D30   SDCD30    1
    SVT1D45   OBJ       252.79
    SVT1D45   SCCT1     1
    SVT1D45   SDCD45    1
    SVT1D19   OBJ       255.395
    SVT1D19   SCCT1     1
    SVT1D19   SDCD19    1
    SVT19D12  OBJ       277.897
    SVT19D12  SCCT19    1
    SVT19D12  SDCD12    1
    SVT19D24  OBJ       770.339
    SVT19D24  SCCT19    1
    SVT19D24  SDCD24    1
    SVT19D8   OBJ       39.612
    SVT19D8   SCCT19    1
    SVT19D8   SDCD8     1
    SVT19D18  OBJ       -72.842
    SVT19D18  SCCT19    1
    SVT19D18  SDCD18    1
    SVT19D19  OBJ       507.436
    SVT19D19  SCCT19    1
    SVT19D19  SDCD19    1
    SVT19D10  OBJ       318.005
    SVT19D10  SCCT19    1
    SVT19D10  SDCD10    1
    SVT19D47  OBJ       2.286
    SVT19D47  SCCT19    1
    SVT19D47  SDCD47    1
    SVT19D26  OBJ       396.456
    SVT19D26  SCCT19    1
    SVT19D26  SDCD26    1
    SVT19D25  OBJ       233.009
    SVT19D25  SCCT19    1
    SVT19D25  SDCD25    1
    SVT19D5   OBJ       744.805
    SVT19D5   SCCT19    1
    SVT19D5   SDCD5     1
    SVT18D12  OBJ       496.823
    SVT18D12  SCCT18    1
    SVT18D12  SDCD12    1
    SVT18D24  OBJ       1059.81
    SVT18D24  SCCT18    1
    SVT18D24  SDCD24    1
    SVT18D8   OBJ       44.65
    SVT18D8   SCCT18    1
    SVT18D8   SDCD8     1
    SVT18D18  OBJ       189.304
    SVT18D18  SCCT18    1
    SVT18D18  SDCD18    1
    SVT18D19  OBJ       785.935
    SVT18D19  SCCT18    1
    SVT18D19  SDCD19    1
    SVT18D10  OBJ       455.124
    SVT18D10  SCCT18    1
    SVT18D10  SDCD10    1
    SVT18D47  OBJ       178.419
    SVT18D47  SCCT18    1
    SVT18D47  SDCD47    1
    SVT18D26  OBJ       585.58
    SVT18D26  SCCT18    1
    SVT18D26  SDCD26    1
    SVT18D25  OBJ       611.762
    SVT18D25  SCCT18    1
    SVT18D25  SDCD25    1
    SVT18D32  OBJ       1232.441
    SVT18D32  SCCT18    1
    SVT18D32  SDCD32    1
    SVT17D42  OBJ       1023.212
    SVT17D42  SCCT17    1
    SVT17D42  SDCD42    1
    SVT17D24  OBJ       646.338
    SVT17D24  SCCT17    1
    SVT17D24  SDCD24    1
    SVT17D8   OBJ       730.271
    SVT17D8   SCCT17    1
    SVT17D8   SDCD8     1
    SVT17D47  OBJ       725.884
    SVT17D47  SCCT17    1
    SVT17D47  SDCD47    1
    SVT17D15  OBJ       780.38
    SVT17D15  SCCT17    1
    SVT17D15  SDCD15    1
    SVT17D32  OBJ       540.036
    SVT17D32  SCCT17    1
    SVT17D32  SDCD32    1
    SVT17D19  OBJ       -2.047
    SVT17D19  SCCT17    1
    SVT17D19  SDCD19    1
    SVT17D26  OBJ       340.294
    SVT17D26  SCCT17    1
    SVT17D26  SDCD26    1
    SVT17D30  OBJ       1141.507
    SVT17D30  SCCT17    1
    SVT17D30  SDCD30    1
    SVT17D46  OBJ       975.311
    SVT17D46  SCCT17    1
    SVT17D46  SDCD46    1
    SVT16D9   OBJ       26.678
    SVT16D9   SCCT16    1
    SVT16D9   SDCD9     1
    SVT16D16  OBJ       13.28
    SVT16D16  SCCT16    1
    SVT16D16  SDCD16    1
    SVT16D3   OBJ       250.321
    SVT16D3   SCCT16    1
    SVT16D3   SDCD3     1
    SVT16D28  OBJ       118.204
    SVT16D28  SCCT16    1
    SVT16D28  SDCD28    1
    SVT16D37  OBJ       321.925
    SVT16D37  SCCT16    1
    SVT16D37  SDCD37    1
    SVT16D27  OBJ       -84.869
    SVT16D27  SCCT16    1
    SVT16D27  SDCD27    1
    SVT16D6   OBJ       101.301
    SVT16D6   SCCT16    1
    SVT16D6   SDCD6     1
    SVT16D23  OBJ       369.525
    SVT16D23  SCCT16    1
    SVT16D23  SDCD23    1
    SVT16D4   OBJ       343.069
    SVT16D4   SCCT16    1
    SVT16D4   SDCD4     1
    SVT16D50  OBJ       248.597
    SVT16D50  SCCT16    1
    SVT16D50  SDCD50    1
RHS
    RHS       FRC0      137.883
    RHS       FRC1      149.947
    RHS       FRC2      141.827
    RHS       FRC3      144.726
    RHS       FRC4      133.075
    RHS       FRC5      138.816
    RHS       FRC6      145.664
    RHS       FRC7      146.217
    RHS       FRC8      150.007
    RHS       FRC9      137.241
    RHS       SDCD9     2.007
    RHS       SDCD29    2.348
    RHS       SDCD8     4.352
    RHS       SDCD28    4.506
    RHS       SDCD7     2.773
    RHS       SDCD27    5.383
    RHS       SDCD6     2.487
    RHS       SDCD26    3.931
    RHS       SDCD25    5.455
    RHS       SDCD5     3.102
    RHS       SDCD24    3.082
    RHS       SDCD4     4.629
    RHS       SDCD23    4.205
    RHS       SDCD3     3.36
    RHS       SDCD22    3.039
    RHS       SDCD2     5.593
    RHS       SDCD21    3.701
    RHS       SDCD1     2.995
    RHS       SDCD20    5.708
    RHS       SDCD50    4.84
    RHS       SDCD19    5.462
    RHS       SDCD18    4.126
    RHS       SDCD49    4.586
    RHS       SDCD17    3.388
    RHS       SDCD48    2.713
    RHS       SDCD16    4.975
    RHS       SDCD47    5.058
    RHS       SDCD15    5.28
    RHS       SDCD46    4.653
    RHS       SDCD14    5.209
    RHS       SDCD45    3.404
    RHS       SDCD13    4.161
    RHS       SDCD44    5.423
    RHS       SDCD12    2.448
    RHS       SDCD43    2.087
    RHS       SDCD11    4.76
    RHS       SDCD42    3.963
    RHS       SDCD10    2.368
    RHS       SDCD41    5.439
    RHS       SDCD40    3.142
    RHS       SDCD39    5.554
    RHS       SDCD38    3.332
    RHS       SDCD37    2.9
    RHS       SDCD36    5.181
    RHS       SDCD35    5.216
    RHS       SDCD34    2.666
    RHS       SDCD33    4.3
    RHS       SDCD32    2.249
    RHS       SDCD31    4.669
    RHS       SDCD30    3.792
BOUNDS
 UP UP        FCVT15    30
 UP UP        FCVT14    30
 UP UP        FCVT13    30
 UP UP        FCVT12    30
 UP UP        FCVT11    30
 UP UP        FCVT10    30
 UP UP        FCVT9     30
 UP UP        FCVT8     30
 UP UP        FCVT7     30
 UP UP        FCVT6     30
 UP UP        FCVT20    30
 UP UP        FCVT5     30
 UP UP        FCVT4     30
 UP UP        FCVT3     30
 UP UP        FCVT2     30
 UP UP        FCVT1     30
 UP UP        FCVT19    30
 UP UP        FCVT18    30
 UP UP        FCVT17    30
 UP UP        FCVT16    30
ENDATA
